
1200.0
1140.0
630.0
630.0
630.0
630.0
720.0
630.0
630.0
630.0
660.0
1170.0
630.0
630.0
630.0
630.0
630.0
630.0
630.0
1110.0
630.0
630.0
630.0
630.0
630.0
630.0
630.0
660.0
630.0
630.0
630.0
630.0
1230.0
750.0
840.0
660.0
1110.0
630.0
630.0
630.0
630.0
870.0
630.0
630.0
630.0
630.0
630.0
630.0
1140.0
630.0